43051955523:
19-05-43	2
51061996027:
19-06-51	2
31012581744:
25-01-31	4
81050490146:
04-05-81	4
21060760886:
07-06-21	8
18040603165:
06-04-18	6
79041346503:
13-04-79	0
05082324309:
23-08-05	0
54092589862:
25-09-54	6
57042808123:
28-04-57	2
